Cu 
 1.0000000000000000
    10.2424756670000008    0.0000000000000000    0.0000000000000000
     0.0000000000000000   10.2424756670000008    0.0000000000000000
     0.0000000000000000    0.0000000000000000   25.4318929999999988
 Cu 
  64
Selective dynamics
Cartesian
  1.2803089999999999  1.2803089999999999  0.0000000000000000   F   F   F
 -0.0000000000000000 -0.0000000000000000  1.8106310000000001   F   F   F
  1.2803089999999999  1.2803089999999999  3.6212620000000002   T   T   T
  0.0000000000000000  0.0000000000000000  5.4818930000000003   T   T   T
  1.2803089999999999  3.8409279999999999  0.0000000000000000   F   F   F
 -0.0000000000000000  2.5606190000000000  1.8106310000000001   F   F   F
  1.2803089999999999  3.8409279999999999  3.6212620000000002   T   T   T
  0.0000000000000000  2.5606190000000000  5.4818930000000003   T   T   T
  1.2803089999999999  6.4015469999999999  0.0000000000000000   F   F   F
 -0.0000000000000000  5.1212380000000000  1.8106310000000001   F   F   F
  1.2803089999999999  6.4015469999999999  3.6212620000000002   T   T   T
  0.0000000000000000  5.1212380000000000  5.4818930000000003   T   T   T
  1.2803089999999999  8.9621659999999999  0.0000000000000000   F   F   F
 -0.0000000000000000  7.6818569999999999  1.8106310000000001   F   F   F
  1.2803089999999999  8.9621659999999999  3.6212620000000002   T   T   T
  0.0000000000000000  7.6818569999999999  5.4818930000000003   T   T   T
  3.8409279999999999  1.2803089999999999  0.0000000000000000   F   F   F
  2.5606190000000000 -0.0000000000000000  1.8106310000000001   F   F   F
  3.8409279999999999  1.2803089999999999  3.6212620000000002   T   T   T
  2.5606190000000000  0.0000000000000000  5.4818930000000003   T   T   T
  3.8409279999999999  3.8409279999999999  0.0000000000000000   F   F   F
  2.5606190000000000  2.5606190000000000  1.8106310000000001   F   F   F
  3.8409279999999999  3.8409279999999999  3.6212620000000002   T   T   T
  2.5606190000000000  2.5606190000000000  5.4818930000000003   T   T   T
  3.8409279999999999  6.4015469999999999  0.0000000000000000   F   F   F
  2.5606190000000000  5.1212380000000000  1.8106310000000001   F   F   F
  3.8409279999999999  6.4015469999999999  3.6212620000000002   T   T   T
  2.5606190000000000  5.1212380000000000  5.4818930000000003   T   T   T
  3.8409279999999999  8.9621659999999999  0.0000000000000000   F   F   F
  2.5606190000000000  7.6818569999999999  1.8106310000000001   F   F   F
  3.8409279999999999  8.9621659999999999  3.6212620000000002   T   T   T
  2.5606190000000000  7.6818569999999999  5.4818930000000003   T   T   T
  6.4015469999999999  1.2803089999999999  0.0000000000000000   F   F   F
  5.1212380000000000 -0.0000000000000000  1.8106310000000001   F   F   F
  6.4015469999999999  1.2803089999999999  3.6212620000000002   T   T   T
  5.1212380000000000  0.0000000000000000  5.4818930000000003   T   T   T
  6.4015469999999999  3.8409279999999999  0.0000000000000000   F   F   F
  5.1212380000000000  2.5606190000000000  1.8106310000000001   F   F   F
  6.4015469999999999  3.8409279999999999  3.6212620000000002   T   T   T
  5.1212380000000000  2.5606190000000000  5.4818930000000003   T   T   T
  6.4015469999999999  6.4015469999999999  0.0000000000000000   F   F   F
  5.1212380000000000  5.1212380000000000  1.8106310000000001   F   F   F
  6.4015469999999999  6.4015469999999999  3.6212620000000002   T   T   T
  5.1212380000000000  5.1212380000000000  5.4818930000000003   T   T   T
  6.4015469999999999  8.9621659999999999  0.0000000000000000   F   F   F
  5.1212380000000000  7.6818569999999999  1.8106310000000001   F   F   F
  6.4015469999999999  8.9621659999999999  3.6212620000000002   T   T   T
  5.1212380000000000  7.6818569999999999  5.4818930000000003   T   T   T
  8.9621659999999999  1.2803089999999999  0.0000000000000000   F   F   F
  7.6818569999999999 -0.0000000000000000  1.8106310000000001   F   F   F
  8.9621659999999999  1.2803089999999999  3.6212620000000002   T   T   T
  7.6818569999999999  0.0000000000000000  5.4818930000000003   T   T   T
  8.9621659999999999  3.8409279999999999  0.0000000000000000   F   F   F
  7.6818569999999999  2.5606190000000000  1.8106310000000001   F   F   F
  8.9621659999999999  3.8409279999999999  3.6212620000000002   T   T   T
  7.6818569999999999  2.5606190000000000  5.4818930000000003   T   T   T
  8.9621659999999999  6.4015469999999999  0.0000000000000000   F   F   F
  7.6818569999999999  5.1212380000000000  1.8106310000000001   F   F   F
  8.9621659999999999  6.4015469999999999  3.6212620000000002   T   T   T
  7.6818569999999999  5.1212380000000000  5.4818930000000003   T   T   T
  8.9621659999999999  8.9621659999999999  0.0000000000000000   F   F   F
  7.6818569999999999  7.6818569999999999  1.8106310000000001   F   F   F
  8.9621659999999999  8.9621659999999999  3.6212620000000002   T   T   T
  7.6818569999999999  7.6818569999999999  5.4818930000000003   T   T   T
