Rh Cu
 1.0000000000000000
     0.0000000000000000    3.6212620000000002    3.6212620000000002
     3.6212620000000002    0.0000000000000000    3.6212620000000002
     1.8106310000000001    1.8106310000000001    0.0000000000000000
 Rh  Cu
   1   3
Cartesian
  0.0000000000000000  0.0000000000000000  0.0000000000000000
  1.8106310000000001  0.0000000000000000  1.8106310000000001
  0.0000000000000000  1.8106310000000001  1.8106310000000001
  1.8106310000000001  1.8106310000000001  3.6212620000000002
